12 24 9 10
18 17 5 11 20 9 18 11 7 10 3 13 6 18 11 4 2 9 2 2 10 14 15 10 
5.67 1.65 0.17 7.72 6.08 4.04 1.7 2.61 7.3 2.35 0.77 2.27 5.35 1.92 2.9 6.6 6.49 5.96 4.39 6.23 7.11 0.06 7.26 7.35 
2.07 3.48 5.93 7.84 4.96 7.19 5.08 7.34 4.6 3.62 2.13 2.67 5.31 0.27 7.74 4.83 5.15 4.88 7.08 4.97 7.03 4.76 2.54 1.09 
3.2 0.41 6.55 5.08 5.51 7.89 5.09 4.61 7.65 1.77 0.76 6.5 0.43 4.95 0.15 0.82 7.42 2.32 7.73 3.91 6.85 0.99 0.26 0.75 
1.73 0.54 7.63 1.36 3.72 2.88 6.28 6.86 7.71 2.32 0.21 5.97 4.99 1.44 0.1 5.59 3.35 0.76 6.21 6.84 6.7 1.28 4.94 2.75 
7.35 0.42 7.67 3.51 5.51 6.78 7.72 7.86 3.79 1.64 2.71 6.33 0.62 1.16 0.2 2.32 5.96 0.19 7.07 1.86 2.07 4.89 6.13 7.86 
1.54 5.09 4.58 2.72 0.52 7.26 4.25 2.79 1.95 2.19 0.09 4.59 7.63 1.48 1.81 2.04 1.2 3.78 0.57 6.2 6.73 3.34 0.58 5.59 
0.96 4.96 6.14 5.21 0.55 0.05 2.27 0.5 5.85 6.78 4.27 0.77 3.53 1.04 0.11 2.75 6.88 4.71 3.7 6.69 2.89 0.63 2.44 3.65 
1.12 2.56 2.8 0.2 4.85 0.6 1.07 5.69 2.93 7.01 5.49 2 4.71 5.17 6.69 4.96 0.6 2.35 3.34 5.26 0.82 4.15 0.77 2.25 
5.94 1.62 3.54 4.41 7.95 6.35 3.01 7.54 6.65 0.91 5.74 3.86 2.26 5.07 2.4 1.67 2.76 6.47 5.9 5.53 1.83 7.8 4.86 4.63 
4 4 4 4 4 4 4 4 4 4 4 4 4 4 4 4 4 4 4 4 4 4 4 4 
2.59 0.02 4.02 3.53 0.41 3.76 7.57 4.85 6.7 1.5 7.78 6.97 1.17 7.34 3.44 2.13 4.76 1.1 5.78 4.91 2.59 7.64 5.53 7 
7.27 4.65 5.54 3.38 3.5 7.78 6.64 3.28 5.04 1.26 1.19 5.33 5.74 2.98 3.31 5.91 3.58 7.03 7.22 0.41 4.64 1.56 1.49 2.26 
1 1 1 1 1 1 1 1 1 1 1 1 1 1 1 1 1 1 1 1 1 1 1 1 
1 1 1 1 1 1 1 1 1 1 1 1 1 1 1 1 1 1 1 1 1 1 1 1 
1 1 1 1 1 1 1 1 1 1 1 1 1 1 1 1 1 1 1 1 1 1 1 1 
1 1 1 1 1 1 1 1 1 1 1 1 1 1 1 1 1 1 1 1 1 1 1 1 
1 1 1 1 1 1 1 1 1 1 1 1 1 1 1 1 1 1 1 1 1 1 1 1 
1 1 1 1 1 1 1 1 1 1 1 1 1 1 1 1 1 1 1 1 1 1 1 1 
1 1 1 1 1 1 1 1 1 1 1 1 1 1 1 1 1 1 1 1 1 1 1 1 
1 1 1 1 1 1 1 1 1 1 1 1 1 1 1 1 1 1 1 1 1 1 1 1 
1 1 1 1 1 1 1 1 1 1 1 1 1 1 1 1 1 1 1 1 1 1 1 1 
1 1 1 1 1 1 1 1 1 1 1 1 1 1 1 1 1 1 1 1 1 1 1 1 
1 1 1 1 1 1 1 1 1 1 1 1 1 1 1 1 1 1 1 1 1 1 1 1 
1 1 1 1 1 1 1 1 1 1 1 1 1 1 1 1 1 1 1 1 1 1 1 1 
0.01 0.01 0.01 0.01 0.01 0.01 0.01 0.01 0.01 0.01 0.01 0.01 0.01 0.01 0.01 0.01 0.01 0.01 0.01 0.01 0.01 0.01 0.01 0.01 
0.02 0.02 0.02 0.02 0.02 0.02 0.02 0.02 0.02 0.02 0.02 0.02 0.02 0.02 0.02 0.02 0.02 0.02 0.02 0.02 0.02 0.02 0.02 0.02 
0.03 0.03 0.03 0.03 0.03 0.03 0.03 0.03 0.03 0.03 0.03 0.03 0.03 0.03 0.03 0.03 0.03 0.03 0.03 0.03 0.03 0.03 0.03 0.03 
0.04 0.04 0.04 0.04 0.04 0.04 0.04 0.04 0.04 0.04 0.04 0.04 0.04 0.04 0.04 0.04 0.04 0.04 0.04 0.04 0.04 0.04 0.04 0.04 
0.05 0.05 0.05 0.05 0.05 0.05 0.05 0.05 0.05 0.05 0.05 0.05 0.05 0.05 0.05 0.05 0.05 0.05 0.05 0.05 0.05 0.05 0.05 0.05 
0.06 0.06 0.06 0.06 0.06 0.06 0.06 0.06 0.06 0.06 0.06 0.06 0.06 0.06 0.06 0.06 0.06 0.06 0.06 0.06 0.06 0.06 0.06 0.06 
0.07 0.07 0.07 0.07 0.07 0.07 0.07 0.07 0.07 0.07 0.07 0.07 0.07 0.07 0.07 0.07 0.07 0.07 0.07 0.07 0.07 0.07 0.07 0.07 
0.08 0.08 0.08 0.08 0.08 0.08 0.08 0.08 0.08 0.08 0.08 0.08 0.08 0.08 0.08 0.08 0.08 0.08 0.08 0.08 0.08 0.08 0.08 0.08 
0.09 0.09 0.09 0.09 0.09 0.09 0.09 0.09 0.09 0.09 0.09 0.09 0.09 0.09 0.09 0.09 0.09 0.09 0.09 0.09 0.09 0.09 0.09 0.09 
0.1 0.1 0.1 0.1 0.1 0.1 0.1 0.1 0.1 0.1 0.1 0.1 0.1 0.1 0.1 0.1 0.1 0.1 0.1 0.1 0.1 0.1 0.1 0.1 
0.5 0.5 0.5 0.5 0.5 0.5 0.5 0.5 0.5 0.5 0.5 0.5 0.5 0.5 0.5 0.5 0.5 0.5 0.5 0.5 0.5 0.5 0.5 0.5 
1 1 1 1 1 1 1 1 1 1 1 1 1 1 1 1 1 1 1 1 1 1 1 1 
